p cnf 204 179
-19 2 0
-20 2 0
-21 2 0
-22 3 0
-23 3 0
-24 6 0
-25 6 0
-26 8 0
-27 8 0
-28 9 0
-29 9 0
-30 9 0
-31 9 0
-32 12 0
-33 12 0
-34 13 0
-35 13 0
-36 13 0
-37 13 0
-38 13 0
-39 13 0
-40 13 0
-41 13 0
-42 13 0
-43 13 0
-44 13 0
-45 13 0
-46 13 0
-47 14 0
-48 14 0
-49 15 0
-50 15 0
-51 15 0
-52 15 0
-53 16 0
-54 17 0
-55 17 0
-56 5 0
-57 5 0
-58 5 0
-59 1 0
-60 1 0
-61 1 0
-62 1 0
-63 1 0
-64 -75 0
-64 -75 0
-64 4 7 0
-65 -75 0
-65 -75 0
-65 5 0
-66 -75 0
-67 -75 0
-68 -75 0
-71 70 0
-72 70 0
-74 -73 0
-75 74 0
-77 76 0
-78 76 0
-79 76 0
-80 77 0
-80 0 
9 10 11 14 17 18 0
-82 -81 0
-85 -83 0
-86 85 0
-87 85 0
-88 85 0
-89 85 0
-90 85 0
-91 85 0
-92 85 0
-93 85 0
-94 85 0
-95 94 0
-96 94 0
-97 85 0
-98 85 0
-99 85 0
-100 85 0
-102 69 0
-103 -28 0
-105 103 0
-106 104 0
-107 131 0
-110 75 0
-112 111 0
-114 113 0
-114 84 0
-117 116 0
-118 116 0
-119 118 0
-119 116 0
-120 116 0
-122 121 0
-123 121 0
-124 -4 0
-124 -5 0
-126 125 0
-128 127 0
-129 127 0
-130 -127 0
-132 131 0
-133 131 0
-134 131 0
-135 131 0
-135 133 134 0
-136 131 0
-136 135 0
-137 131 0
-137 135 0
-138 131 0
-138 132 0
-139 131 0
-139 138 0
-140 131 0
-141 131 0
-142 131 0
-143 131 0
-143 133 134 0
-144 131 0
-145 131 0
-146 103 0
-148 147 0
-149 147 0
-150 147 0
-151 147 0
-154 153 0
-155 153 0
-156 153 0
-156 153 0
-156 -12 0
-157 156 0
-158 153 0
-159 147 0
-159 76 0
-160 153 0
-160 76 0
-161 160 0
-162 -163 0
-163 -152 0
-164 -152 0
-165 -164 0
-166 -164 0
-167 -164 0
-168 -164 0
-169 -164 0
-170 108 0
-172 171 0
-174 173 0
-175 153 0
-175 203 0
-177 176 0
-179 178 0
-180 182 0
-181 115 0
-182 178 0
-183 182 0
-184 85 0
-184 2 7 9 13 14 0
-186 185 0
-188 -187 0
-189 188 0
-190 188 0
-191 188 0
-191 196 0
-192 188 0
-192 196 0
-193 188 0
-194 85 0
-195 85 0
-197 104 0
-197 101 0
-198 -196 0
-199 85 0
-200 85 0
-201 109 110 0
-202 85 0
